c turning on binary mode checking
c parsing input formula with 259840 variables and 1039914 clauses
c finished parsing, read 675122368 bytes from proof file
c detected empty clause; start verification via backward checking
c 215459 of 1039914 clauses in core                            
c 2215924 of 6880264 lemmas in core using 139280725 resolution steps
c 0 RAT lemmas in core; 1957608 redundant literals in core lemmas
s VERIFIED
c verification time: 722.215 seconds
